(set-logic ALL)
(declare-const k Int)
(declare-const i Int)
(declare-const x (_ BitVec k))
(assert (>= k 0))
(assert (>= i 0))
(assert (< i k))
(assert (bvult x (bvnot (_ bv0 k))))
(assert (distinct (bvurem (bvshl x i) (bvnot (_ bv0 k))) ((_ rotate_left i) x)))
(check-sat)